problems/csplib-prob049/set_partition_full-models/noch/O0/minion/model_2_1-24-3-solution000001.eprime-solution
language ESSENCE' 1.0

letting setA_Explicit be [1, 2, 7, 9, 11, 12, 13, 14, 16, 18, 23, 24; int(1..12)]
letting setB_Occurrence be
        [false, false, true, true, true, true, false, true, false, true, false, false, false, false, true, false, true,
         false, true, true, true, true, false, false;
             int(1..24)]
