problems/csplib-prob049/set_partition_full-models/noch/O0/minion/model_2_1-24-3-solution000001.solution
language Essence 1.3

letting setA be {1, 2, 7, 9, 11, 12, 13, 14, 16, 18, 23, 24}
letting setB be {3, 4, 5, 6, 8, 10, 15, 17, 19, 20, 21, 22}
